g3 0 1 0	# problem d4n12R3R7d001d1
 12 9 1 0 3	# vars, constraints, objectives, ranges, eqns
 4 1	# nonlinear constraints, objectives
 0 0	# network constraints: nonlinear, linear
 12 12 12	# nonlinear vars in constraints, objectives, both
 0 0 0 1	# linear network variables; functions; arith, flags
 0 0 0 0 0	# discrete variables: binary, integer, nonlinear (b,c,o)
 108 12	# nonzeros in Jacobian, gradients
 0 0	# max name lengths: constraints, variables
 0 0 0 0 0	# common exprs: b,c,o,c1,o1
b
0 0.35 2.16
0 0.67 2.93
0 0.43 2.79
0 0.78 2.03
0 0.75 2.06
0 0.66 2.9
0 0.74 2.04
0 0.68 2.39
0 0.42 2.33
0 0.67 2.52
0 0.55 2.59
0 0.04 2.41
r
2 90.507
2 139.427
2 409.129
2 102.369
4 63.59
4 87.618
4 90.557
2 94.021
2 45.138
C0
o2
o2
n7.05
v3
v3
C1
o54
4
o2
o2
n8.27
v3
v3
o2
o2
o2
n2.96
v0
v0
v2
o2
o2
o2
n8.12
v1
v4
v6
o2
o2
o2
n1.71
v2
v4
v4
C2
o54
18
o2
o2
n9.62
v3
v3
o2
o2
o2
n9.87
v0
v0
v2
o2
o2
o2
n6.51
v1
v4
v6
o2
o2
o2
n0.89
v2
v4
v4
o16
o2
o2
o2
o2
n9.81
v0
v0
v1
v11
o2
o2
o2
o2
n8.95
v0
v0
v8
v8
o2
o2
o2
o2
n2.21
v0
v0
v9
v10
o2
o2
o2
o2
n2.57
v0
v2
v9
v10
o2
o2
o2
o2
n9.33
v0
v3
v4
v4
o2
o2
o2
o2
n1.26
v1
v1
v8
v8
o2
o2
o2
o2
n6.17
v2
v5
v9
v11
o2
o2
o2
o2
n5.86
v2
v10
v10
v10
o2
o2
o2
o2
n3.09
v3
v8
v8
v9
o2
o2
o2
o2
n4.87
v3
v8
v9
v11
o2
o2
o2
o2
n5.36
v4
v6
v8
v9
o2
o2
o2
o2
n3.38
v5
v5
v6
v8
o2
o2
o2
o2
n5.5
v6
v7
v8
v11
o2
o2
o2
o2
n5.95
v9
v10
v10
v10
C3
o2
o2
n5.18
v3
v3
C4
n0
C5
n0
C6
n0
C7
n0
C8
n0
O0 0
o54
18
o2
o2
n3.83
v3
v3
o2
o2
o2
n4
v0
v0
v2
o2
o2
o2
n4.12
v1
v4
v6
o2
o2
o2
n4.12
v2
v4
v4
o2
o2
o2
o2
n2
v0
v0
v1
v11
o2
o2
o2
o2
n8.71
v0
v0
v8
v8
o2
o2
o2
o2
n6.42
v0
v0
v9
v10
o2
o2
o2
o2
n0.41
v0
v2
v9
v10
o2
o2
o2
o2
n1.06
v0
v3
v4
v4
o2
o2
o2
o2
n0.43
v1
v1
v8
v8
o2
o2
o2
o2
n8.46
v2
v5
v9
v11
o2
o2
o2
o2
n7.88
v2
v10
v10
v10
o2
o2
o2
o2
n6.95
v3
v8
v8
v9
o2
o2
o2
o2
n4.65
v3
v8
v9
v11
o2
o2
o2
o2
n6.93
v4
v6
v8
v9
o2
o2
o2
o2
n4.83
v5
v5
v6
v8
o16
o2
o2
o2
o2
n8.22
v6
v7
v8
v11
o16
o2
o2
o2
o2
n2.78
v9
v10
v10
v10
k11
9
18
27
36
45
54
63
72
81
90
99
J0 12
0 0.05
1 1.8
2 5.95
3 1.54
4 8.39
5 4.93
6 8.48
7 1.87
8 4.05
9 0.98
10 5.88
11 8.13
J1 12
0 3.29
1 7.03
2 -9.73
3 7.05
4 4.64
5 8.23
6 5.28
7 9.21
8 9.62
9 4.64
10 5.63
11 -1.24
J2 12
0 0.96
1 5.4
2 2.07
3 9.64
4 4.54
5 4.86
6 5.56
7 5.3
8 9.71
9 1.39
10 3.42
11 2.3
J3 12
0 1.88
1 3.48
2 1.72
3 8.33
4 4.63
5 8.1
6 8.6
7 9.55
8 7.33
9 2.59
10 1.42
11 4.14
J4 12
0 8.3
1 4.53
2 6.94
3 3.32
4 6.86
5 0.52
6 4.7
7 2.34
8 9.68
9 4.59
10 -8.73
11 1.28
J5 12
0 -5.02
1 1.2
2 9.13
3 3.92
4 6.81
5 1.73
6 7.88
7 7.59
8 0.42
9 9.15
10 6.31
11 9.16
J6 12
0 0.84
1 9.91
2 0.02
3 8.4
4 5.31
5 6.13
6 0.33
7 8.88
8 0.68
9 7.55
10 2.87
11 8.07
J7 12
0 6.44
1 3.03
2 4.61
3 2.3
4 7.38
5 2.58
6 7.12
7 7.89
8 4.09
9 6.55
10 6.63
11 5.21
J8 12
0 2.26
1 0.21
2 5.4
3 2.72
4 0.43
5 3.43
6 2.14
7 0.68
8 -1.24
9 2.92
10 2.98
11 9.02
G0 12
0 2.71
1 2.76
2 3.69
3 9.76
4 1.99
5 6.95
6 2.37
7 7.32
8 -1.76
9 3.84
10 4.12
11 6.27
